\ Model index_tracking_109assets
\ LP format - for model browsing. Use MPS format to capture full model detail.
Minimize
- 0.0314453854745022 w[0] - 0.051930734214904 w[1]
- 0.0142400444348322 w[2] - 0.0093848411430529 w[3]
- 0.0268853855833396 w[4] - 0.00470633229078565 w[5]
- 0.00435312042685168 w[6] - 0.00364438053768323 w[7]
- 0.0343691994557106 w[8] - 0.00502133382297589 w[9]
- 0.0314651185985334 w[10] - 0.0134197360282958 w[11]
- 0.0348138684900303 w[12] - 0.00383011181127682 w[13]
- 0.00618891953261266 w[14] - 0.0182153608717844 w[15]
- 0.00751812123499914 w[16] - 9.5592686413659318e-04 w[17]
- 0.00293297341327107 w[18] - 0.00380007 w[19]
- 0.00409239366616995 w[20] - 0.0228753373709803 w[21]
- 0.0162050815425917 w[22] - 0.0136058628403965 w[23]
- 0.0862237089707261 w[24] - 0.037468501995779 w[25]
- 0.0257928021837344 w[26] - 0.00259350467573618 w[27]
- 0.0122780868168422 w[28] - 0.0155953507345248 w[29]
- 0.00763733674191726 w[30] - 0.0637300349962277 w[31]
- 0.0121761617851817 w[32] - 0.00338694187484649 w[33]
- 0.00426694795452964 w[34] - 0.1133656591314555 w[35]
- 0.00760003764374577 w[36] - 0.00144736872350873 w[37]
- 0.00635302893687203 w[38] - 0.00186201025096692 w[39]
- 0.0289504855571818 w[40] - 0.00163791501148619 w[41]
- 0.00284644568340753 w[42] - 0.0116146210315572 w[43]
- 0.0350808832269021 w[44] - 0.01079239920661 w[45]
- 0.0032891551545724 w[46] - 0.0138854172173738 w[47]
- 0.00724621101548578 w[48] - 0.0359086549319137 w[49]
- 0.027195844314909 w[50] - 0.00676063428770754 w[51]
- 0.0252303841404353 w[52] - 0.0151727611687303 w[53]
- 0.0453806428142921 w[54] - 0.0241783470920704 w[55]
- 0.0199907946990894 w[56] - 0.043651413150668 w[57]
- 0.0117479746936321 w[58] - 0.0053397333738626 w[59]
- 0.0141415308213135 w[60] - 0.00810808630977928 w[61]
- 0.0211676215079746 w[62] - 0.0123076400602002 w[63]
- 0.0173087655105526 w[64] - 0.00347002377243402 w[65]
- 0.0192317529603767 w[66] - 0.00319968827443693 w[67]
- 0.0302663446998289 w[68] - 0.0303116023258127 w[69]
- 0.0163827722524077 w[70] - 0.0157740011207914 w[71]
- 0.00924996813879155 w[72] - 0.00632840042054249 w[73]
- 0.0113963938025505 w[74] - 0.0840121221117378 w[75]
- 0.0145500596674444 w[76] - 0.00301176737321541 w[77]
- 0.00209576200218794 w[78] - 0.00274615520512161 w[79]
- 0.00793021063756327 w[80] - 0.0410206362004585 w[81]
- 0.00415699472492482 w[82] - 0.0479434725765167 w[83]
- 0.0138422369908174 w[84] - 0.0187598668490574 w[85]
- 0.018252750227281 w[86] - 0.0208831262073368 w[87]
- 0.0076668871815188 w[88] - 0.00112059588999655 w[89]
- 0.00642321746677524 w[90] - 0.00476071083482 w[91]
- 0.0157815046310237 w[92] - 0.0144041317882733 w[93]
- 0.00881008030037115 w[94] - 0.066940298684487 w[95]
- 0.00609548031782469 w[96] - 0.001249249336705 w[97]
- 0.0130362358247656 w[98] - 0.0379956298729777 w[99]
- 0.0154164798176264 w[100] - 0.00809816654459218 w[101]
- 0.0147128856230621 w[102] - 0.0727611924250937 w[103]
- 0.00482180408591119 w[104] - 0.011931111042178 w[105]
- 0.0226060812928692 w[106] - 0.0149119569103279 w[107]
- 0.00902870655419444 w[108] + 0.0195031341868897 Constant + [ 2 w[0] ^2
+ 2 w[1] ^2 + 2 w[2] ^2 + 2 w[3] ^2 + 2 w[4] ^2 + 2 w[5] ^2 + 2 w[6] ^2
+ 2 w[7] ^2 + 2 w[8] ^2 + 2 w[9] ^2 + 2 w[10] ^2 + 2 w[11] ^2
+ 2 w[12] ^2 + 2 w[13] ^2 + 2 w[14] ^2 + 2 w[15] ^2 + 2 w[16] ^2
+ 2 w[17] ^2 + 2 w[18] ^2 + 2 w[19] ^2 + 2 w[20] ^2 + 2 w[21] ^2
+ 2 w[22] ^2 + 2 w[23] ^2 + 2 w[24] ^2 + 2 w[25] ^2 + 2 w[26] ^2
+ 2 w[27] ^2 + 2 w[28] ^2 + 2 w[29] ^2 + 2 w[30] ^2 + 2 w[31] ^2
+ 2 w[32] ^2 + 2 w[33] ^2 + 2 w[34] ^2 + 2 w[35] ^2 + 2 w[36] ^2
+ 2 w[37] ^2 + 2 w[38] ^2 + 2 w[39] ^2 + 2 w[40] ^2 + 2 w[41] ^2
+ 2 w[42] ^2 + 2 w[43] ^2 + 2 w[44] ^2 + 2 w[45] ^2 + 2 w[46] ^2
+ 2 w[47] ^2 + 2 w[48] ^2 + 2 w[49] ^2 + 2 w[50] ^2 + 2 w[51] ^2
+ 2 w[52] ^2 + 2 w[53] ^2 + 2 w[54] ^2 + 2 w[55] ^2 + 2 w[56] ^2
+ 2 w[57] ^2 + 2 w[58] ^2 + 2 w[59] ^2 + 2 w[60] ^2 + 2 w[61] ^2
+ 2 w[62] ^2 + 2 w[63] ^2 + 2 w[64] ^2 + 2 w[65] ^2 + 2 w[66] ^2
+ 2 w[67] ^2 + 2 w[68] ^2 + 2 w[69] ^2 + 2 w[70] ^2 + 2 w[71] ^2
+ 2 w[72] ^2 + 2 w[73] ^2 + 2 w[74] ^2 + 2 w[75] ^2 + 2 w[76] ^2
+ 2 w[77] ^2 + 2 w[78] ^2 + 2 w[79] ^2 + 2 w[80] ^2 + 2 w[81] ^2
+ 2 w[82] ^2 + 2 w[83] ^2 + 2 w[84] ^2 + 2 w[85] ^2 + 2 w[86] ^2
+ 2 w[87] ^2 + 2 w[88] ^2 + 2 w[89] ^2 + 2 w[90] ^2 + 2 w[91] ^2
+ 2 w[92] ^2 + 2 w[93] ^2 + 2 w[94] ^2 + 2 w[95] ^2 + 2 w[96] ^2
+ 2 w[97] ^2 + 2 w[98] ^2 + 2 w[99] ^2 + 2 w[100] ^2 + 2 w[101] ^2
+ 2 w[102] ^2 + 2 w[103] ^2 + 2 w[104] ^2 + 2 w[105] ^2 + 2 w[106] ^2
+ 2 w[107] ^2 + 2 w[108] ^2 ] / 2
Subject To
budget: w[0] + w[1] + w[2] + w[3] + w[4] + w[5] + w[6] + w[7] + w[8] + w[9] + w[10] + w[11] + w[12] + w[13] + w[14] + w[15] + w[16] + w[17] + w[18] + w[19] + w[20] + w[21] + w[22] + w[23] + w[24] + w[25] + w[26] + w[27] + w[28] + w[29] + w[30] + w[31] + w[32] + w[33] + w[34] + w[35] + w[36] + w[37] + w[38] + w[39] + w[40] + w[41] + w[42] + w[43] + w[44] + w[45] + w[46] + w[47] + w[48] + w[49] + w[50] + w[51] + w[52] + w[53] + w[54] + w[55] + w[56] + w[57] + w[58] + w[59] + w[60] + w[61] + w[62] + w[63] + w[64] + w[65] + w[66] + w[67] + w[68] + w[69] + w[70] + w[71] + w[72] + w[73] + w[74] + w[75] + w[76] + w[77] + w[78] + w[79] + w[80] + w[81] + w[82] + w[83] + w[84] + w[85] + w[86] + w[87] + w[88] + w[89] + w[90] + w[91] + w[92] + w[93] + w[94] + w[95] + w[96] + w[97] + w[98] + w[99] + w[100] + w[101] + w[102] + w[103] + w[104] + w[105] + w[106] + w[107] + w[108] = 1
max_dev_0: w[0] <= 0.0657226927372511
min_dev_0: w[0] >= 0
max_dev_1: w[1] <= 0.075965367107452
min_dev_1: w[1] >= 0
max_dev_2: w[2] <= 0.0571200222174161
min_dev_2: w[2] >= 0
max_dev_3: w[3] <= 0.0546924205715264
min_dev_3: w[3] >= 0
max_dev_4: w[4] <= 0.0634426927916698
min_dev_4: w[4] >= 0
max_dev_5: w[5] <= 0.0523531661453928
min_dev_5: w[5] >= 0
max_dev_6: w[6] <= 0.0521765602134258
min_dev_6: w[6] >= 0
max_dev_7: w[7] <= 0.0518221902688416
min_dev_7: w[7] >= 0
max_dev_8: w[8] <= 0.0671845997278553
min_dev_8: w[8] >= 0
max_dev_9: w[9] <= 0.0525106669114879
min_dev_9: w[9] >= 0
max_dev_10: w[10] <= 0.0657325592992667
min_dev_10: w[10] >= 0
max_dev_11: w[11] <= 0.0567098680141479
min_dev_11: w[11] >= 0
max_dev_12: w[12] <= 0.0674069342450151
min_dev_12: w[12] >= 0
max_dev_13: w[13] <= 0.0519150559056384
min_dev_13: w[13] >= 0
max_dev_14: w[14] <= 0.0530944597663063
min_dev_14: w[14] >= 0
max_dev_15: w[15] <= 0.0591076804358922
min_dev_15: w[15] >= 0
max_dev_16: w[16] <= 0.0537590606174996
min_dev_16: w[16] >= 0
max_dev_17: w[17] <= 0.0504779634320683
min_dev_17: w[17] >= 0
max_dev_18: w[18] <= 0.0514664867066355
min_dev_18: w[18] >= 0
max_dev_19: w[19] <= 0.051900034992476
min_dev_19: w[19] >= 0
max_dev_20: w[20] <= 0.052046196833085
min_dev_20: w[20] >= 0
max_dev_21: w[21] <= 0.0614376686854902
min_dev_21: w[21] >= 0
max_dev_22: w[22] <= 0.0581025407712959
min_dev_22: w[22] >= 0
max_dev_23: w[23] <= 0.0568029314201983
min_dev_23: w[23] >= 0
max_dev_24: w[24] <= 0.0931118544853631
min_dev_24: w[24] >= 0
max_dev_25: w[25] <= 0.0687342509978895
min_dev_25: w[25] >= 0
max_dev_26: w[26] <= 0.0628964010918672
min_dev_26: w[26] >= 0
max_dev_27: w[27] <= 0.0512967523378681
min_dev_27: w[27] >= 0
max_dev_28: w[28] <= 0.0561390434084211
min_dev_28: w[28] >= 0
max_dev_29: w[29] <= 0.0577976753672624
min_dev_29: w[29] >= 0
max_dev_30: w[30] <= 0.0538186683709586
min_dev_30: w[30] >= 0
max_dev_31: w[31] <= 0.0818650174981139
min_dev_31: w[31] >= 0
max_dev_32: w[32] <= 0.0560880808925909
min_dev_32: w[32] >= 0
max_dev_33: w[33] <= 0.0516934709374232
min_dev_33: w[33] >= 0
max_dev_34: w[34] <= 0.0521334739772648
min_dev_34: w[34] >= 0
max_dev_35: w[35] <= 0.1066828295657277
min_dev_35: w[35] >= 0.00668282956572774
max_dev_36: w[36] <= 0.0538000188218729
min_dev_36: w[36] >= 0
max_dev_37: w[37] <= 0.0507236843617544
min_dev_37: w[37] >= 0
max_dev_38: w[38] <= 0.053176514468436
min_dev_38: w[38] >= 0
max_dev_39: w[39] <= 0.0509310051254835
min_dev_39: w[39] >= 0
max_dev_40: w[40] <= 0.0644752427785909
min_dev_40: w[40] >= 0
max_dev_41: w[41] <= 0.0508189575057431
min_dev_41: w[41] >= 0
max_dev_42: w[42] <= 0.0514232228417038
min_dev_42: w[42] >= 0
max_dev_43: w[43] <= 0.0558073105157786
min_dev_43: w[43] >= 0
max_dev_44: w[44] <= 0.0675404416134511
min_dev_44: w[44] >= 0
max_dev_45: w[45] <= 0.055396199603305
min_dev_45: w[45] >= 0
max_dev_46: w[46] <= 0.0516445775772862
min_dev_46: w[46] >= 0
max_dev_47: w[47] <= 0.0569427086086869
min_dev_47: w[47] >= 0
max_dev_48: w[48] <= 0.0536231055077429
min_dev_48: w[48] >= 0
max_dev_49: w[49] <= 0.0679543274659569
min_dev_49: w[49] >= 0
max_dev_50: w[50] <= 0.0635979221574545
min_dev_50: w[50] >= 0
max_dev_51: w[51] <= 0.0533803171438538
min_dev_51: w[51] >= 0
max_dev_52: w[52] <= 0.0626151920702177
min_dev_52: w[52] >= 0
max_dev_53: w[53] <= 0.0575863805843652
min_dev_53: w[53] >= 0
max_dev_54: w[54] <= 0.0726903214071461
min_dev_54: w[54] >= 0
max_dev_55: w[55] <= 0.0620891735460352
min_dev_55: w[55] >= 0
max_dev_56: w[56] <= 0.0599953973495447
min_dev_56: w[56] >= 0
max_dev_57: w[57] <= 0.071825706575334
min_dev_57: w[57] >= 0
max_dev_58: w[58] <= 0.055873987346816
min_dev_58: w[58] >= 0
max_dev_59: w[59] <= 0.0526698666869313
min_dev_59: w[59] >= 0
max_dev_60: w[60] <= 0.0570707654106567
min_dev_60: w[60] >= 0
max_dev_61: w[61] <= 0.0540540431548896
min_dev_61: w[61] >= 0
max_dev_62: w[62] <= 0.0605838107539873
min_dev_62: w[62] >= 0
max_dev_63: w[63] <= 0.0561538200301001
min_dev_63: w[63] >= 0
max_dev_64: w[64] <= 0.0586543827552763
min_dev_64: w[64] >= 0
max_dev_65: w[65] <= 0.051735011886217
min_dev_65: w[65] >= 0
max_dev_66: w[66] <= 0.0596158764801883
min_dev_66: w[66] >= 0
max_dev_67: w[67] <= 0.0515998441372185
min_dev_67: w[67] >= 0
max_dev_68: w[68] <= 0.0651331723499144
min_dev_68: w[68] >= 0
max_dev_69: w[69] <= 0.0651558011629064
min_dev_69: w[69] >= 0
max_dev_70: w[70] <= 0.0581913861262039
min_dev_70: w[70] >= 0
max_dev_71: w[71] <= 0.0578870005603957
min_dev_71: w[71] >= 0
max_dev_72: w[72] <= 0.0546249840693958
min_dev_72: w[72] >= 0
max_dev_73: w[73] <= 0.0531642002102712
min_dev_73: w[73] >= 0
max_dev_74: w[74] <= 0.0556981969012753
min_dev_74: w[74] >= 0
max_dev_75: w[75] <= 0.0920060610558689
min_dev_75: w[75] >= 0
max_dev_76: w[76] <= 0.0572750298337222
min_dev_76: w[76] >= 0
max_dev_77: w[77] <= 0.0515058836866077
min_dev_77: w[77] >= 0
max_dev_78: w[78] <= 0.051047881001094
min_dev_78: w[78] >= 0
max_dev_79: w[79] <= 0.0513730776025608
min_dev_79: w[79] >= 0
max_dev_80: w[80] <= 0.0539651053187816
min_dev_80: w[80] >= 0
max_dev_81: w[81] <= 0.0705103181002293
min_dev_81: w[81] >= 0
max_dev_82: w[82] <= 0.0520784973624624
min_dev_82: w[82] >= 0
max_dev_83: w[83] <= 0.0739717362882584
min_dev_83: w[83] >= 0
max_dev_84: w[84] <= 0.0569211184954087
min_dev_84: w[84] >= 0
max_dev_85: w[85] <= 0.0593799334245287
min_dev_85: w[85] >= 0
max_dev_86: w[86] <= 0.0591263751136405
min_dev_86: w[86] >= 0
max_dev_87: w[87] <= 0.0604415631036684
min_dev_87: w[87] >= 0
max_dev_88: w[88] <= 0.0538334435907594
min_dev_88: w[88] >= 0
max_dev_89: w[89] <= 0.0505602979449983
min_dev_89: w[89] >= 0
max_dev_90: w[90] <= 0.0532116087333876
min_dev_90: w[90] >= 0
max_dev_91: w[91] <= 0.05238035541741
min_dev_91: w[91] >= 0
max_dev_92: w[92] <= 0.0578907523155119
min_dev_92: w[92] >= 0
max_dev_93: w[93] <= 0.0572020658941367
min_dev_93: w[93] >= 0
max_dev_94: w[94] <= 0.0544050401501856
min_dev_94: w[94] >= 0
max_dev_95: w[95] <= 0.0834701493422435
min_dev_95: w[95] >= 0
max_dev_96: w[96] <= 0.0530477401589124
min_dev_96: w[96] >= 0
max_dev_97: w[97] <= 0.0506246246683525
min_dev_97: w[97] >= 0
max_dev_98: w[98] <= 0.0565181179123828
min_dev_98: w[98] >= 0
max_dev_99: w[99] <= 0.0689978149364888
min_dev_99: w[99] >= 0
max_dev_100: w[100] <= 0.0577082399088132
min_dev_100: w[100] >= 0
max_dev_101: w[101] <= 0.0540490832722961
min_dev_101: w[101] >= 0
max_dev_102: w[102] <= 0.057356442811531
min_dev_102: w[102] >= 0
max_dev_103: w[103] <= 0.0863805962125468
min_dev_103: w[103] >= 0
max_dev_104: w[104] <= 0.0524109020429556
min_dev_104: w[104] >= 0
max_dev_105: w[105] <= 0.055965555521089
min_dev_105: w[105] >= 0
max_dev_106: w[106] <= 0.0613030406464346
min_dev_106: w[106] >= 0
max_dev_107: w[107] <= 0.057455978455164
min_dev_107: w[107] >= 0
max_dev_108: w[108] <= 0.0545143532770972
min_dev_108: w[108] >= 0
Bounds
w[0] <= 1
w[1] <= 1
w[2] <= 1
w[3] <= 1
w[4] <= 1
w[5] <= 1
w[6] <= 1
w[7] <= 1
w[8] <= 1
w[9] <= 1
w[10] <= 1
w[11] <= 1
w[12] <= 1
w[13] <= 1
w[14] <= 1
w[15] <= 1
w[16] <= 1
w[17] <= 1
w[18] <= 1
w[19] <= 1
w[20] <= 1
w[21] <= 1
w[22] <= 1
w[23] <= 1
w[24] <= 1
w[25] <= 1
w[26] <= 1
w[27] <= 1
w[28] <= 1
w[29] <= 1
w[30] <= 1
w[31] <= 1
w[32] <= 1
w[33] <= 1
w[34] <= 1
w[35] <= 1
w[36] <= 1
w[37] <= 1
w[38] <= 1
w[39] <= 1
w[40] <= 1
w[41] <= 1
w[42] <= 1
w[43] <= 1
w[44] <= 1
w[45] <= 1
w[46] <= 1
w[47] <= 1
w[48] <= 1
w[49] <= 1
w[50] <= 1
w[51] <= 1
w[52] <= 1
w[53] <= 1
w[54] <= 1
w[55] <= 1
w[56] <= 1
w[57] <= 1
w[58] <= 1
w[59] <= 1
w[60] <= 1
w[61] <= 1
w[62] <= 1
w[63] <= 1
w[64] <= 1
w[65] <= 1
w[66] <= 1
w[67] <= 1
w[68] <= 1
w[69] <= 1
w[70] <= 1
w[71] <= 1
w[72] <= 1
w[73] <= 1
w[74] <= 1
w[75] <= 1
w[76] <= 1
w[77] <= 1
w[78] <= 1
w[79] <= 1
w[80] <= 1
w[81] <= 1
w[82] <= 1
w[83] <= 1
w[84] <= 1
w[85] <= 1
w[86] <= 1
w[87] <= 1
w[88] <= 1
w[89] <= 1
w[90] <= 1
w[91] <= 1
w[92] <= 1
w[93] <= 1
w[94] <= 1
w[95] <= 1
w[96] <= 1
w[97] <= 1
w[98] <= 1
w[99] <= 1
w[100] <= 1
w[101] <= 1
w[102] <= 1
w[103] <= 1
w[104] <= 1
w[105] <= 1
w[106] <= 1
w[107] <= 1
w[108] <= 1
Constant = 1
End
